6560.0
1 0 0 1 1 1 1 0 0 1 0 0 0 1 0 0 0 1 0 1 
0 0 0 0 0 0 0 6 6 6 6 6 6 6 6 3 3 3 3 3 3 4 4 4 4 4 4 4 4 5 5 5 5 5 5 5 5 5 0 0 3 3 4 3 13 17 19 3 19 19 13 13 17 19 13 19 5 6 9 9 3 9 0 17 13 13 17 17 9 9 19 3 13 17 17 17 17 17 9 13 